

******************************************************************************
This program contains Ipopt, a library for large-scale nonlinear optimization.
 Ipopt is released as open source code under the Eclipse Public License (EPL).
         For more information visit http://projects.coin-or.org/Ipopt
******************************************************************************

This is Ipopt version 3.12.8, running with linear solver mumps.
NOTE: Other linear solvers might be more efficient (see Ipopt documentation).

Number of nonzeros in equality constraint Jacobian...:       78
Number of nonzeros in inequality constraint Jacobian.:        0
Number of nonzeros in Lagrangian Hessian.............:        0

Total number of variables............................:       20
                     variables with only lower bounds:        0
                variables with lower and upper bounds:       20
                     variables with only upper bounds:        0
Total number of equality constraints.................:       14
Total number of inequality constraints...............:        0
        inequality constraints with only lower bounds:        0
   inequality constraints with lower and upper bounds:        0
        inequality constraints with only upper bounds:        0

iter    objective    inf_pr   inf_du lg(mu)  ||d||  lg(rg) alpha_du alpha_pr  ls
   0  5.2803532e+02 3.42e+02 4.69e+01  -1.0 0.00e+00    -  0.00e+00 0.00e+00   0
   1  1.3382290e+02 1.33e+02 1.09e+02  -1.0 1.61e+00    -  6.53e-03 6.11e-01f  1
   2  9.4658378e+01 1.30e+02 1.05e+02  -1.0 1.54e+01    -  4.25e-02 1.94e-02f  1
   3  7.7467066e+01 1.24e+02 9.76e+01  -1.0 4.24e+00    -  8.64e-02 4.98e-02f  1
   4  5.4622086e+01 1.09e+02 6.77e+01  -1.0 3.28e+00    -  3.90e-01 1.21e-01f  1
   5  3.4319526e+01 8.71e+01 3.65e+01  -1.0 1.78e+00    -  1.00e+00 2.00e-01f  1
   6  3.3792285e+01 8.62e+01 3.61e+01  -1.0 7.02e-01    -  4.22e-02 1.03e-02h  1
   7  1.7848979e+00 3.20e+00 1.84e+01  -1.0 9.88e-01    -  4.50e-02 9.63e-01f  1
   8  9.9218650e-01 9.50e-01 5.39e+00  -1.0 9.94e-01    -  1.00e+00 7.03e-01h  1
   9  6.8547629e-01 1.87e-02 2.12e+01  -1.0 5.55e-01    -  4.03e-01 9.80e-01h  1
iter    objective    inf_pr   inf_du lg(mu)  ||d||  lg(rg) alpha_du alpha_pr  ls
  10  8.2679144e-01 9.40e-03 1.85e+03  -1.0 3.62e-02    -  1.00e+00 4.96e-01h  1
  11  8.9026547e-01 8.67e-03 2.22e+04  -1.0 3.54e-01    -  1.29e-01 7.85e-02h  1
  12  1.5196941e+00 6.76e-03 1.66e+04  -1.0 8.03e-02    -  1.98e-01 2.20e-01f  3
  13  3.4856080e+00 1.02e-03 2.09e+03  -1.0 5.48e-02    -  5.85e-01 8.48e-01h  1
  14  3.4699811e+00 5.71e-04 4.75e+03  -1.0 3.86e-02    -  4.36e-01 4.42e-01h  1
  15  4.8612491e+00 3.11e-15 1.99e+03  -1.0 1.08e-02    -  5.77e-01 1.00e+00f  1
  16  4.8642828e+00 8.30e-16 5.81e-11  -1.0 3.27e-03    -  1.00e+00 1.00e+00f  1
  17  3.4053570e+00 1.88e-15 5.18e+03  -5.7 7.67e-02    -  6.83e-01 8.49e-01f  1
  18  3.1869477e+00 9.59e-16 7.03e+03  -5.7 3.47e-01    -  8.67e-01 5.88e-01f  1
  19  3.0561790e+00 4.87e-16 7.23e+02  -5.7 1.33e-01    -  9.75e-01 9.41e-01f  1
iter    objective    inf_pr   inf_du lg(mu)  ||d||  lg(rg) alpha_du alpha_pr  ls
  20  3.0550393e+00 7.56e-17 4.72e+02  -5.7 2.35e-05    -  7.89e-01 7.62e-01f  1
  21  3.0549745e+00 1.11e-16 4.96e+03  -5.7 1.05e-03    -  9.92e-01 2.60e-01f  1
  22  3.0548955e+00 1.65e-17 1.54e+02  -5.7 1.27e-05    -  1.00e+00 9.56e-01f  1
  23  3.0548953e+00 2.73e-17 3.56e-11  -5.7 6.07e-06    -  1.00e+00 1.00e+00f  1
  24  3.0548829e+00 6.72e-18 5.79e+01  -9.0 2.71e-05    -  9.15e-01 7.42e-01f  1
  25  3.0548798e+00 2.22e-16 2.44e+00  -9.0 1.14e-06    -  9.75e-01 9.97e-01f  1
  26  3.0548798e+00 1.11e-16 1.52e-10  -9.0 6.22e-08    -  1.00e+00 1.00e+00f  1

Number of Iterations....: 26

                                   (scaled)                 (unscaled)
Objective...............:   2.2912171181873888e+00    3.0548797836792456e+00
Dual infeasibility......:   1.5239129903400042e-10    2.0318331900203277e-10
Constraint violation....:   1.1102230246251565e-16    1.1102230246251565e-16
Complementarity.........:   9.1170500136183181e-10    1.2155762783157304e-09
Overall NLP error.......:   8.8900957488495418e-12    1.2155762783157304e-09


Number of objective function evaluations             = 29
Number of objective gradient evaluations             = 27
Number of equality constraint evaluations            = 29
Number of inequality constraint evaluations          = 0
Number of equality constraint Jacobian evaluations   = 27
Number of inequality constraint Jacobian evaluations = 0
Number of Lagrangian Hessian evaluations             = 26
Total CPU secs in IPOPT (w/o function evaluations)   =      0.008
Total CPU secs in NLP function evaluations           =      0.000

EXIT: Optimal Solution Found.
 
Ipopt 3.12.8: Optimal Solution Found
